NAME : X_26_seed_123_id_13
TYPE : CVRP
DIMENSION : 219
EDGE_WEIGHT_TYPE : EUC_2D
CAPACITY : 3
NODE_COORD_SECTION
1	0	0
2	555	636
3	733	716
4	573	179
5	666	585
6	62	373
7	752	39
8	827	656
9	487	246
10	280	727
11	93	899
12	0	156
13	461	682
14	623	937
15	954	180
16	151	842
17	16	925
18	720	240
19	135	698
20	558	194
21	632	38
22	628	909
23	742	897
24	420	415
25	863	800
26	76	252
27	757	637
28	447	286
29	966	402
30	851	827
31	673	62
32	871	941
33	802	947
34	467	321
35	510	369
36	404	475
37	570	980
38	728	44
39	997	443
40	510	113
41	874	879
42	711	905
43	472	656
44	216	874
45	317	427
46	19	467
47	280	23
48	65	831
49	737	4
50	310	769
51	320	308
52	846	524
53	662	278
54	580	425
55	195	693
56	386	515
57	601	659
58	903	161
59	584	260
60	542	686
61	482	227
62	375	373
63	43	291
64	196	74
65	662	491
66	879	438
67	341	544
68	698	669
69	624	496
70	755	164
71	234	508
72	329	36
73	417	189
74	497	536
75	149	181
76	966	820
77	93	895
78	178	73
79	642	80
80	931	329
81	21	899
82	168	4
83	22	810
84	705	895
85	333	501
86	65	438
87	807	796
88	55	519
89	975	283
90	923	130
91	482	27
92	808	367
93	921	537
94	980	20
95	750	696
96	105	52
97	556	856
98	399	105
99	71	992
100	953	857
101	772	215
102	181	934
103	820	130
104	944	251
105	86	683
106	746	808
107	157	585
108	196	8
109	999	164
110	617	60
111	163	536
112	940	794
113	520	371
114	619	283
115	232	677
116	364	645
117	684	503
118	114	469
119	942	47
120	409	941
121	391	90
122	96	901
123	230	402
124	948	269
125	652	312
126	836	297
127	453	283
128	150	22
129	178	416
130	250	166
131	187	909
132	992	47
133	39	831
134	308	299
135	44	996
136	870	399
137	62	882
138	759	609
139	133	767
140	755	324
141	732	536
142	188	985
143	555	100
144	695	712
145	647	677
146	213	824
147	959	423
148	546	75
149	164	757
150	407	20
151	619	582
152	359	199
153	629	257
154	339	85
155	94	87
156	194	266
157	874	367
158	698	420
159	178	272
160	731	428
161	362	108
162	48	668
163	603	779
164	208	265
165	535	70
166	18	877
167	677	233
168	320	661
169	848	676
170	868	177
171	52	627
172	601	876
173	163	870
174	591	519
175	886	394
176	865	21
177	59	17
178	526	913
179	563	110
180	992	706
181	974	592
182	891	996
183	526	943
184	633	657
185	885	795
186	629	35
187	187	275
188	425	18
189	747	776
190	902	283
191	305	331
192	250	913
193	436	493
194	361	366
195	728	719
196	926	166
197	120	884
198	344	647
199	482	468
200	12	724
201	816	341
202	615	453
203	492	685
204	302	20
205	837	936
206	682	793
207	772	550
208	544	807
209	147	674
210	940	796
211	301	60
212	579	691
213	430	46
214	102	901
215	508	309
216	175	490
217	961	203
218	76	470
219	54	408
DEMAND_SECTION
1	0
2	1
3	1
4	1
5	1
6	1
7	1
8	1
9	1
10	1
11	1
12	1
13	1
14	1
15	1
16	1
17	1
18	1
19	1
20	1
21	1
22	1
23	1
24	1
25	1
26	1
27	1
28	1
29	1
30	1
31	1
32	1
33	1
34	1
35	1
36	1
37	1
38	1
39	1
40	1
41	1
42	1
43	1
44	1
45	1
46	1
47	1
48	1
49	1
50	1
51	1
52	1
53	1
54	1
55	1
56	1
57	1
58	1
59	1
60	1
61	1
62	1
63	1
64	1
65	1
66	1
67	1
68	1
69	1
70	1
71	1
72	1
73	1
74	1
75	1
76	1
77	1
78	1
79	1
80	1
81	1
82	1
83	1
84	1
85	1
86	1
87	1
88	1
89	1
90	1
91	1
92	1
93	1
94	1
95	1
96	1
97	1
98	1
99	1
100	1
101	1
102	1
103	1
104	1
105	1
106	1
107	1
108	1
109	1
110	1
111	1
112	1
113	1
114	1
115	1
116	1
117	1
118	1
119	1
120	1
121	1
122	1
123	1
124	1
125	1
126	1
127	1
128	1
129	1
130	1
131	1
132	1
133	1
134	1
135	1
136	1
137	1
138	1
139	1
140	1
141	1
142	1
143	1
144	1
145	1
146	1
147	1
148	1
149	1
150	1
151	1
152	1
153	1
154	1
155	1
156	1
157	1
158	1
159	1
160	1
161	1
162	1
163	1
164	1
165	1
166	1
167	1
168	1
169	1
170	1
171	1
172	1
173	1
174	1
175	1
176	1
177	1
178	1
179	1
180	1
181	1
182	1
183	1
184	1
185	1
186	1
187	1
188	1
189	1
190	1
191	1
192	1
193	1
194	1
195	1
196	1
197	1
198	1
199	1
200	1
201	1
202	1
203	1
204	1
205	1
206	1
207	1
208	1
209	1
210	1
211	1
212	1
213	1
214	1
215	1
216	1
217	1
218	1
219	1
DEPOT_SECTION
1
-1
EOF
